p edge 50 137
e 1 10
e 1 14
e 1 17
e 1 18
e 1 30
e 1 34
e 1 35
e 1 39
e 1 44
e 1 45
e 2 4
e 2 13
e 2 14
e 2 24
e 2 26
e 2 38
e 2 41
e 2 42
e 2 45
e 3 4
e 3 5
e 3 21
e 3 37
e 4 19
e 4 24
e 4 25
e 5 12
e 5 14
e 5 21
e 5 42
e 5 44
e 6 23
e 6 41
e 7 13
e 7 31
e 7 35
e 7 36
e 7 41
e 7 48
e 8 28
e 8 30
e 8 33
e 8 35
e 9 15
e 9 26
e 9 42
e 9 46
e 10 13
e 10 19
e 10 20
e 10 26
e 10 27
e 10 31
e 10 48
e 11 26
e 11 30
e 11 31
e 11 44
e 12 18
e 12 21
e 12 34
e 13 14
e 13 33
e 13 41
e 14 21
e 14 25
e 14 30
e 14 34
e 14 38
e 14 40
e 14 41
e 14 47
e 15 26
e 15 37
e 16 31
e 16 38
e 16 43
e 17 21
e 17 29
e 17 43
e 17 47
e 18 27
e 18 34
e 18 45
e 18 48
e 19 21
e 19 32
e 19 33
e 19 39
e 19 40
e 20 32
e 20 36
e 20 37
e 20 43
e 20 45
e 20 46
e 20 48
e 21 23
e 21 38
e 21 41
e 22 32
e 22 49
e 23 26
e 23 37
e 23 41
e 23 47
e 24 39
e 25 27
e 25 36
e 25 39
e 26 29
e 26 33
e 27 34
e 28 43
e 28 44
e 28 45
e 29 34
e 29 43
e 30 35
e 30 37
e 30 38
e 32 37
e 32 42
e 33 36
e 34 46
e 36 38
e 36 48
e 36 49
e 38 43
e 39 41
e 39 42
e 41 43
e 41 46
e 42 43
e 42 45
e 42 46
e 46 48
